(set-info :smt-lib-version 2.6)
(set-logic LIA)
(set-info
  :source |
 Generated by PSyCO 0.1
 More info in N. P. Lopes and J. Monteiro. Weakest Precondition Synthesis for
 Compiler Optimizations, VMCAI'14.
|)
(set-info :category "industrial")
(set-info :status sat)
(declare-fun W_S1_V6 () Bool)
(declare-fun W_S1_V4 () Bool)
(declare-fun W_S1_V2 () Bool)
(declare-fun W_S1_V3 () Bool)
(declare-fun W_S1_V1 () Bool)
(declare-fun R_S1_V6 () Bool)
(declare-fun R_S1_V4 () Bool)
(declare-fun R_S1_V5 () Bool)
(declare-fun R_S1_V2 () Bool)
(declare-fun R_S1_V3 () Bool)
(declare-fun R_S1_V1 () Bool)
(declare-fun R_E2_V1 () Bool)
(declare-fun R_E1_V6 () Bool)
(declare-fun R_E1_V4 () Bool)
(declare-fun R_E1_V5 () Bool)
(declare-fun R_E1_V2 () Bool)
(declare-fun DISJ_W_S1_R_E1 () Bool)
(declare-fun DISJ_W_S1_R_S1 () Bool)
(declare-fun R_E2_V6 () Bool)
(declare-fun R_E2_V4 () Bool)
(declare-fun R_E2_V5 () Bool)
(declare-fun R_E2_V2 () Bool)
(declare-fun DISJ_W_S1_R_E2 () Bool)
(declare-fun W_S1_V5 () Bool)
(declare-fun R_E1_V3 () Bool)
(declare-fun R_E1_V1 () Bool)
(declare-fun R_E2_V3 () Bool)
(assert
 (let
 (($x61497
   (forall
    ((V2_0 Int) (V5_0 Int) 
     (V4_0 Int) (V6_0 Int) 
     (MW_S1_V1 Bool) (MW_S1_V3 Bool) 
     (MW_S1_V2 Bool) (MW_S1_V5 Bool) 
     (MW_S1_V4 Bool) (MW_S1_V6 Bool) 
     (S1_V1_!6750 Int) (S1_V1_!6756 Int) 
     (S1_V1_!6765 Int) (S1_V3_!6751 Int) 
     (S1_V3_!6757 Int) (S1_V3_!6766 Int) 
     (S1_V2_!6752 Int) (S1_V2_!6758 Int) 
     (S1_V2_!6767 Int) (E1_!6747 Int) 
     (E1_!6762 Int) (E1_!6764 Int) 
     (E1_!6771 Int) (S1_V5_!6753 Int) 
     (S1_V5_!6759 Int) (S1_V5_!6768 Int) 
     (E2_!6748 Int) (E2_!6749 Int) 
     (E2_!6763 Int) (S1_V4_!6754 Int) 
     (S1_V4_!6760 Int) (S1_V4_!6769 Int) 
     (S1_V6_!6755 Int) (S1_V6_!6761 Int) 
     (S1_V6_!6770 Int))
    (let
    (($x63158
      (= (ite MW_S1_V3 S1_V3_!6757 (+ 1 (ite MW_S1_V3 S1_V3_!6751 E2_!6749)))
      (+ 1 (ite MW_S1_V3 S1_V3_!6766 E2_!6763)))))
    (let
    (($x63139
      (and (= (ite MW_S1_V1 S1_V1_!6756 E1_!6747) (+ (- 1) E1_!6771)) $x63158
      (= (ite MW_S1_V2 S1_V2_!6758 V2_0) (ite MW_S1_V2 S1_V2_!6767 V2_0))
      (= (ite MW_S1_V5 S1_V5_!6759 V5_0) (ite MW_S1_V5 S1_V5_!6768 V5_0))
      (= (ite MW_S1_V4 S1_V4_!6760 V4_0) (ite MW_S1_V4 S1_V4_!6769 V4_0))
      (= (ite MW_S1_V6 S1_V6_!6761 V6_0) (ite MW_S1_V6 S1_V6_!6770 V6_0)))))
    (let
    (($x62529
      (>=
      (ite MW_S1_V3 S1_V3_!6757 (+ 1 (ite MW_S1_V3 S1_V3_!6751 E2_!6749)))
      (+ (- 1) (ite MW_S1_V4 S1_V4_!6760 V4_0)))))
    (let
    (($x62871
      (and (not (<= V4_0 E2_!6748)) 
      (not (<= V2_0 E1_!6747)) 
      (not (<= V4_0 E2_!6749))
      (not
      (<= (ite MW_S1_V4 S1_V4_!6754 V4_0)
      (+ 1 (ite MW_S1_V3 S1_V3_!6751 E2_!6749)))) $x62529
      (>= (ite MW_S1_V1 S1_V1_!6756 E1_!6747)
      (+ (- 1) (ite MW_S1_V2 S1_V2_!6758 V2_0))) 
      (not (<= V2_0 E1_!6762)) 
      (not (<= V4_0 E2_!6763)) 
      (not (<= V2_0 E1_!6764))
      (>= (ite MW_S1_V1 S1_V1_!6765 E1_!6764)
      (+ (- 1) (ite MW_S1_V2 S1_V2_!6767 V2_0)))
      (not
      (<= (ite MW_S1_V4 S1_V4_!6769 V4_0)
      (+ 1 (ite MW_S1_V3 S1_V3_!6766 E2_!6763))))
      (>= E1_!6771 (ite MW_S1_V2 S1_V2_!6767 V2_0))
      (>= (ite MW_S1_V3 S1_V3_!6766 E2_!6763)
      (+ (- 2) (ite MW_S1_V4 S1_V4_!6769 V4_0))))))
    (let
    (($x62663
      (and
      (or (not R_S1_V1) (= (ite MW_S1_V1 S1_V1_!6750 E1_!6747) E1_!6764))
      (or (not R_S1_V3)
      (= (ite MW_S1_V3 S1_V3_!6751 E2_!6749) (+ (- 1) E2_!6763)))
      (or (not R_S1_V2) (= (ite MW_S1_V2 S1_V2_!6752 V2_0) V2_0))
      (or (not R_S1_V5) (= (ite MW_S1_V5 S1_V5_!6753 V5_0) V5_0))
      (or (not R_S1_V4) (= (ite MW_S1_V4 S1_V4_!6754 V4_0) V4_0))
      (or (not R_S1_V6) (= (ite MW_S1_V6 S1_V6_!6755 V6_0) V6_0)))))
    (let (($x62455 (not $x62663)))
    (let
    (($x61341
      (and (or (not R_S1_V1) (= E1_!6747 E1_!6764))
      (or (not R_S1_V3) (= E2_!6749 E2_!6763)))))
    (let
    (($x62748
      (and
      (or (not R_S1_V1) (= E1_!6747 (ite MW_S1_V1 S1_V1_!6750 E1_!6747)))
      (or (not R_S1_V3)
      (= E2_!6749 (+ 1 (ite MW_S1_V3 S1_V3_!6751 E2_!6749))))
      (or (not R_S1_V2) (= V2_0 (ite MW_S1_V2 S1_V2_!6752 V2_0)))
      (or (not R_S1_V5) (= V5_0 (ite MW_S1_V5 S1_V5_!6753 V5_0)))
      (or (not R_S1_V4) (= V4_0 (ite MW_S1_V4 S1_V4_!6754 V4_0)))
      (or (not R_S1_V6) (= V6_0 (ite MW_S1_V6 S1_V6_!6755 V6_0))))))
    (let (($x62473 (not $x62748)))
    (let
    (($x62575
      (and
      (or (not R_S1_V1) (= E1_!6764 (ite MW_S1_V1 S1_V1_!6750 E1_!6747)))
      (or (not R_S1_V3)
      (= E2_!6763 (+ 1 (ite MW_S1_V3 S1_V3_!6751 E2_!6749))))
      (or (not R_S1_V2) (= V2_0 (ite MW_S1_V2 S1_V2_!6752 V2_0)))
      (or (not R_S1_V5) (= V5_0 (ite MW_S1_V5 S1_V5_!6753 V5_0)))
      (or (not R_S1_V4) (= V4_0 (ite MW_S1_V4 S1_V4_!6754 V4_0)))
      (or (not R_S1_V6) (= V6_0 (ite MW_S1_V6 S1_V6_!6755 V6_0))))))
    (let (($x61363 (not $x62575)))
    (let
    (($x62577
      (and (or (not R_S1_V1) (= E1_!6764 E1_!6747))
      (or (not R_S1_V3) (= E2_!6763 E2_!6749)))))
    (let (($x62928 (not $x62577)))
    (let
    (($x61351
      (and
      (or (not R_S1_V1) (= (ite MW_S1_V1 S1_V1_!6750 E1_!6747) E1_!6747))
      (or (not R_S1_V3)
      (= (ite MW_S1_V3 S1_V3_!6751 E2_!6749) (+ (- 1) E2_!6749)))
      (or (not R_S1_V2) (= (ite MW_S1_V2 S1_V2_!6752 V2_0) V2_0))
      (or (not R_S1_V5) (= (ite MW_S1_V5 S1_V5_!6753 V5_0) V5_0))
      (or (not R_S1_V4) (= (ite MW_S1_V4 S1_V4_!6754 V4_0) V4_0))
      (or (not R_S1_V6) (= (ite MW_S1_V6 S1_V6_!6755 V6_0) V6_0)))))
    (let (($x62539 (not $x61351)))
    (let
    (($x61301
      (and (or (not R_E1_V2) (= (ite MW_S1_V2 S1_V2_!6767 V2_0) V2_0))
      (or (not R_E1_V5) (= (ite MW_S1_V5 S1_V5_!6768 V5_0) V5_0))
      (or (not R_E1_V4) (= (ite MW_S1_V4 S1_V4_!6769 V4_0) V4_0))
      (or (not R_E1_V6) (= (ite MW_S1_V6 S1_V6_!6770 V6_0) V6_0)))))
    (let
    (($x61194
      (and (or (not R_E1_V2) (= V2_0 (ite MW_S1_V2 S1_V2_!6767 V2_0)))
      (or (not R_E1_V5) (= V5_0 (ite MW_S1_V5 S1_V5_!6768 V5_0)))
      (or (not R_E1_V4) (= V4_0 (ite MW_S1_V4 S1_V4_!6769 V4_0)))
      (or (not R_E1_V6) (= V6_0 (ite MW_S1_V6 S1_V6_!6770 V6_0))))))
    (let
    (($x61118
      (and (or $x62473 (= S1_V1_!6750 S1_V1_!6756))
      (or $x62928 (= S1_V1_!6765 S1_V1_!6750))
      (or $x61363 (= S1_V1_!6765 S1_V1_!6756))
      (or $x62473 (= S1_V3_!6751 S1_V3_!6757))
      (or $x62928 (= S1_V3_!6766 S1_V3_!6751))
      (or $x61363 (= S1_V3_!6766 S1_V3_!6757))
      (or $x62539 (= S1_V2_!6758 S1_V2_!6752))
      (or $x62455 (= S1_V2_!6758 S1_V2_!6767))
      (or $x62928 (= S1_V2_!6767 S1_V2_!6752)) 
      (= E1_!6747 E1_!6762) 
      (or (not $x61194) (= E1_!6747 E1_!6771)) 
      (= E1_!6764 E1_!6747) 
      (= E1_!6764 E1_!6762) 
      (or (not $x61194) (= E1_!6764 E1_!6771))
      (or (not $x61301) (= E1_!6771 E1_!6762))
      (or (not $x61341) (= S1_V5_!6753 S1_V5_!6768))
      (or $x62539 (= S1_V5_!6759 S1_V5_!6753))
      (or $x62455 (= S1_V5_!6759 S1_V5_!6768)) 
      (= E2_!6749 E2_!6748)
      (or (not (or (not R_E2_V1) (= E1_!6762 E1_!6747)))
      (= E2_!6763 E2_!6748))
      (or (not (or (not R_E2_V1) (= E1_!6762 E1_!6747)))
      (= E2_!6763 E2_!6749)) 
      (or $x62539 (= S1_V4_!6760 S1_V4_!6754))
      (or $x62928 (= S1_V4_!6769 S1_V4_!6754))
      (or $x61363 (= S1_V4_!6769 S1_V4_!6760))
      (or $x62473 (= S1_V6_!6755 S1_V6_!6761))
      (or (not $x61341) (= S1_V6_!6755 S1_V6_!6770))
      (or $x62455 (= S1_V6_!6761 S1_V6_!6770)) 
      (or (not MW_S1_V1) W_S1_V1) 
      (or (not MW_S1_V3) W_S1_V3) 
      (or (not MW_S1_V2) W_S1_V2) 
      (or (not MW_S1_V4) W_S1_V4) 
      (or (not MW_S1_V6) W_S1_V6))))
    (or (not $x61118) (not $x62871) $x63139))))))))))))))))))))))
 (let (($x56 (and W_S1_V6 R_E1_V6)))
 (let (($x54 (and W_S1_V4 R_E1_V4)))
 (let (($x50 (and W_S1_V2 R_E1_V2)))
 (let
 (($x66
   (or (and W_S1_V1 R_S1_V1) 
   (and W_S1_V3 R_S1_V3) (and W_S1_V2 R_S1_V2) R_S1_V5 
   (and W_S1_V4 R_S1_V4) (and W_S1_V6 R_S1_V6))))
 (let (($x68 (= DISJ_W_S1_R_S1 (not $x66))))
 (let (($x24 (and W_S1_V6 R_E2_V6)))
 (let (($x21 (and W_S1_V4 R_E2_V4)))
 (let (($x16 (and W_S1_V2 R_E2_V2)))
 (let (($x10 (and W_S1_V1 R_E2_V1)))
 (let
 (($x64679
   (or (and (not W_S1_V2) DISJ_W_S1_R_S1) 
   (and (not W_S1_V4) DISJ_W_S1_R_S1) 
   (and (not R_S1_V3) DISJ_W_S1_R_S1) 
   (and (not R_S1_V1) DISJ_W_S1_R_S1) 
   (and (not W_S1_V1) (not W_S1_V2)) 
   (and (not W_S1_V3) (not W_S1_V4))
   (and (not R_S1_V1) (not R_S1_V3) (not W_S1_V2) (not W_S1_V4)))))
 (let (($x115 (not R_E1_V3)))
 (let (($x113 (not R_E1_V1)))
 (let (($x130 (not R_E2_V3)))
 (and $x130 $x113 $x115 $x64679 W_S1_V5
 (= DISJ_W_S1_R_E2 (not (or $x10 $x16 R_E2_V5 $x21 $x24))) $x68
 (= DISJ_W_S1_R_E1 (not (or $x50 R_E1_V5 $x54 $x56))) $x61497))))))))))))))))
(check-sat)
(exit)

